<number of tasks>
11

<cycle time>
94

<task times>
1 4
2 38
3 45
4 12
5 10
6 8
7 12
8 10
9 2
10 10
11 34

<precedence relations>
1,4
2,4
2,5
3,11
4,6
5,7
6,8
7,9
8,10
9,10
10,11

<setup times forward>
1,2:6
1,3:3
1,4:2
1,5:1
1,9:3
2,1:6
2,3:9
2,4:4
2,5:5
3,1:3
3,2:9
3,4:5
3,5:4
3,6:1
3,7:3
3,8:3
3,9:6
3,10:1
3,11:4
4,3:5
4,5:1
4,6:6
4,7:2
4,9:1
5,1:1
5,3:4
5,4:1
5,6:5
5,7:1
5,8:7
6,3:1
6,5:5
6,7:4
6,8:2
6,9:7
7,3:3
7,4:2
7,6:4
7,8:6
7,9:3
8,3:3
8,5:7
8,7:6
8,9:9
8,10:4
9,1:3
9,3:6
9,4:1
9,6:7
9,8:9
9,10:5
10,3:1
10,11:5

<setup times backward>
1,1:14
1,2:8
1,3:17
1,5:13
1,7:14
1,9:11
2,1:20
2,2:14
2,3:23
3,1:11
3,2:5
3,3:14
3,4:9
3,5:10
3,6:15
3,7:11
3,8:17
3,9:8
3,10:13
4,1:16
4,2:10
4,3:19
4,4:14
4,5:15
4,7:16
4,9:13
5,1:15
5,2:9
5,3:18
5,4:13
5,5:14
5,6:19
5,8:21
6,1:10
6,2:4
6,3:13
6,4:8
6,5:9
6,6:14
6,7:10
6,9:7
7,1:14
7,2:8
7,3:17
7,4:12
7,5:13
7,6:18
7,7:14
7,8:20
8,1:8
8,2:2
8,3:11
8,4:6
8,5:7
8,6:12
8,7:8
8,8:14
8,9:5
9,1:17
9,2:11
9,3:20
9,4:15
9,5:16
9,6:21
9,7:17
9,8:23
9,9:14
10,1:12
10,2:6
10,3:15
10,4:10
10,5:11
10,6:16
10,7:12
10,8:18
10,9:9
10,10:14
11,1:7
11,2:1
11,3:10
11,4:5
11,5:6
11,6:11
11,7:7
11,8:13
11,9:4
11,10:9
11,11:14

<end>

<optimal SALBP-1 value>
2


<rand seed>
467321153

<Lower Bounds>
Lm1=2
Lms1=2
Lm2=0
Lm3=2
Lm4=3
Best=3

<Optimal Stations (Iterations: 10)>
3
